Running for instance ./models/rc104.txt
Generating routes...
Execution time:  3.071677  seconds
Academic license - for non-commercial use only
Warning: constraint name "Cliente esta na rota x1" has a space
Optimize a model with 26 rows, 10000 columns and 63041 nonzeros
Variable types: 0 continuous, 10000 integer (0 binary)
Coefficient statistics:
  Matrix range     [1e+00, 1e+00]
  Objective range  [6e+01, 2e+02]
  Bounds range     [1e+00, 1e+00]
  RHS range        [1e+00, 2e+01]
Found heuristic solution: objective 813.8820198
Presolve removed 1 rows and 4740 columns
Presolve time: 0.06s
Presolved: 25 rows, 5260 columns, 26555 nonzeros
Found heuristic solution: objective 804.7838865
Variable types: 0 continuous, 5260 integer (5260 binary)

Root relaxation: objective 3.368052e+02, 71 iterations, 0.00 seconds

    Nodes    |    Current Node    |     Objective Bounds      |     Work
 Expl Unexpl |  Obj  Depth IntInf | Incumbent    BestBd   Gap | It/Node Time

*    0     0               0     336.8051839  336.80518  0.00%     -    0s

Explored 0 nodes (71 simplex iterations) in 0.08 seconds
Thread count was 8 (of 8 available processors)

Solution count 2: 336.805 804.784 

Optimal solution found (tolerance 1.00e-04)
Best objective 3.368051838792e+02, best bound 3.368051838792e+02, gap 0.0000%

Routes:
14 12 11 15 17 9 10 13 16
24 22 23 18 21 25 19 20
6 7 8 5 3 1 4 2

Distance: 336.805183879
Execution time:  4.063106  seconds
